
Gurobi 12.0.3 (mac64[x86], gurobi_cl) logging started Sat Aug 30 12:00:56 2025

Set parameter Username
Set parameter LicenseID to value 2701187
Set parameter LogFile to value "gurobi.log"
Using license file /Users/tabeafry/gurobi.lic
Academic license - for non-commercial use only - expires 2026-08-30

Gurobi 12.0.3 (mac64[x86], gurobi_cl) logging started Sat Aug 30 12:02:03 2025

Set parameter Username
Set parameter LicenseID to value 2701187
Set parameter LogFile to value "gurobi.log"
Using license file /Users/tabeafry/gurobi.lic
Academic license - for non-commercial use only - expires 2026-08-30

Gurobi Optimizer version 12.0.3 build v12.0.3rc0 (mac64[x86] - Darwin 21.6.0 21H1320)
Copyright (c) 2025, Gurobi Optimization, LLC

Read MPS format model from file /Library/gurobi1203/macos_universal2/examples/data/afiro.mps
Reading time = 0.01 seconds
AFIRO: 27 rows, 32 columns, 83 nonzeros

Using Gurobi shared library /Library/gurobi1203/macos_universal2/lib/libgurobi120.dylib

CPU model: Intel(R) Core(TM) i5-5350U CPU @ 1.80GHz
Thread count: 2 physical cores, 4 logical processors, using up to 4 threads

Optimize a model with 27 rows, 32 columns and 83 nonzeros
Model fingerprint: 0x092217cc
Coefficient statistics:
  Matrix range     [1e-01, 2e+00]
  Objective range  [3e-01, 1e+01]
  Bounds range     [0e+00, 0e+00]
  RHS range        [4e+01, 5e+02]
Presolve removed 21 rows and 23 columns
Presolve time: 0.02s
Presolved: 6 rows, 9 columns, 26 nonzeros

Iteration    Objective       Primal Inf.    Dual Inf.      Time
       0   -5.2218703e+02   5.976175e+01   0.000000e+00      0s
       2   -4.6475314e+02   0.000000e+00   0.000000e+00      0s

Solved in 2 iterations and 0.03 seconds (0.00 work units)
Optimal objective -4.647531429e+02
